p cnf 420 2138
1 2 3 4 0
-1 121 0
-2 121 0
-1 -2 122 0
-3 123 0
-4 123 0
-3 -4 124 0
-121 125 0
-123 125 0
-121 -123 126 0
-122 127 0
-124 127 0
-122 -124 128 0
-126 129 0
-127 129 0
-126 -127 130 0
-129 0
25 26 27 28 0
-25 131 0
-26 131 0
-25 -26 132 0
-27 133 0
-28 133 0
-27 -28 134 0
-131 135 0
-133 135 0
-131 -133 136 0
-132 137 0
-134 137 0
-132 -134 138 0
-136 139 0
-137 139 0
-136 -137 140 0
-139 0
49 50 51 52 0
-49 141 0
-50 141 0
-49 -50 142 0
-51 143 0
-52 143 0
-51 -52 144 0
-141 145 0
-143 145 0
-141 -143 146 0
-142 147 0
-144 147 0
-142 -144 148 0
-146 149 0
-147 149 0
-146 -147 150 0
-149 0
73 74 75 76 0
-73 151 0
-74 151 0
-73 -74 152 0
-75 153 0
-76 153 0
-75 -76 154 0
-151 155 0
-153 155 0
-151 -153 156 0
-152 157 0
-154 157 0
-152 -154 158 0
-156 159 0
-157 159 0
-156 -157 160 0
-159 0
97 98 99 100 0
-97 161 0
-98 161 0
-97 -98 162 0
-99 163 0
-100 163 0
-99 -100 164 0
-161 165 0
-163 165 0
-161 -163 166 0
-162 167 0
-164 167 0
-162 -164 168 0
-166 169 0
-167 169 0
-166 -167 170 0
-169 0
5 6 7 8 0
-5 171 0
-6 171 0
-5 -6 172 0
-7 173 0
-8 173 0
-7 -8 174 0
-171 175 0
-173 175 0
-171 -173 176 0
-172 177 0
-174 177 0
-172 -174 178 0
-176 179 0
-177 179 0
-176 -177 180 0
-179 0
29 30 31 32 0
-29 181 0
-30 181 0
-29 -30 182 0
-31 183 0
-32 183 0
-31 -32 184 0
-181 185 0
-183 185 0
-181 -183 186 0
-182 187 0
-184 187 0
-182 -184 188 0
-186 189 0
-187 189 0
-186 -187 190 0
-189 0
53 54 55 56 0
-53 191 0
-54 191 0
-53 -54 192 0
-55 193 0
-56 193 0
-55 -56 194 0
-191 195 0
-193 195 0
-191 -193 196 0
-192 197 0
-194 197 0
-192 -194 198 0
-196 199 0
-197 199 0
-196 -197 200 0
-199 0
77 78 79 80 0
-77 201 0
-78 201 0
-77 -78 202 0
-79 203 0
-80 203 0
-79 -80 204 0
-201 205 0
-203 205 0
-201 -203 206 0
-202 207 0
-204 207 0
-202 -204 208 0
-206 209 0
-207 209 0
-206 -207 210 0
-209 0
101 102 103 104 0
-101 211 0
-102 211 0
-101 -102 212 0
-103 213 0
-104 213 0
-103 -104 214 0
-211 215 0
-213 215 0
-211 -213 216 0
-212 217 0
-214 217 0
-212 -214 218 0
-216 219 0
-217 219 0
-216 -217 220 0
-219 0
9 10 11 12 0
-9 221 0
-10 221 0
-9 -10 222 0
-11 223 0
-12 223 0
-11 -12 224 0
-221 225 0
-223 225 0
-221 -223 226 0
-222 227 0
-224 227 0
-222 -224 228 0
-226 229 0
-227 229 0
-226 -227 230 0
-229 0
33 34 35 36 0
-33 231 0
-34 231 0
-33 -34 232 0
-35 233 0
-36 233 0
-35 -36 234 0
-231 235 0
-233 235 0
-231 -233 236 0
-232 237 0
-234 237 0
-232 -234 238 0
-236 239 0
-237 239 0
-236 -237 240 0
-239 0
57 58 59 60 0
-57 241 0
-58 241 0
-57 -58 242 0
-59 243 0
-60 243 0
-59 -60 244 0
-241 245 0
-243 245 0
-241 -243 246 0
-242 247 0
-244 247 0
-242 -244 248 0
-246 249 0
-247 249 0
-246 -247 250 0
-249 0
81 82 83 84 0
-81 251 0
-82 251 0
-81 -82 252 0
-83 253 0
-84 253 0
-83 -84 254 0
-251 255 0
-253 255 0
-251 -253 256 0
-252 257 0
-254 257 0
-252 -254 258 0
-256 259 0
-257 259 0
-256 -257 260 0
-259 0
105 106 107 108 0
-105 261 0
-106 261 0
-105 -106 262 0
-107 263 0
-108 263 0
-107 -108 264 0
-261 265 0
-263 265 0
-261 -263 266 0
-262 267 0
-264 267 0
-262 -264 268 0
-266 269 0
-267 269 0
-266 -267 270 0
-269 0
13 14 15 16 0
-13 271 0
-14 271 0
-13 -14 272 0
-15 273 0
-16 273 0
-15 -16 274 0
-271 275 0
-273 275 0
-271 -273 276 0
-272 277 0
-274 277 0
-272 -274 278 0
-276 279 0
-277 279 0
-276 -277 280 0
-279 0
37 38 39 40 0
-37 281 0
-38 281 0
-37 -38 282 0
-39 283 0
-40 283 0
-39 -40 284 0
-281 285 0
-283 285 0
-281 -283 286 0
-282 287 0
-284 287 0
-282 -284 288 0
-286 289 0
-287 289 0
-286 -287 290 0
-289 0
61 62 63 64 0
-61 291 0
-62 291 0
-61 -62 292 0
-63 293 0
-64 293 0
-63 -64 294 0
-291 295 0
-293 295 0
-291 -293 296 0
-292 297 0
-294 297 0
-292 -294 298 0
-296 299 0
-297 299 0
-296 -297 300 0
-299 0
85 86 87 88 0
-85 301 0
-86 301 0
-85 -86 302 0
-87 303 0
-88 303 0
-87 -88 304 0
-301 305 0
-303 305 0
-301 -303 306 0
-302 307 0
-304 307 0
-302 -304 308 0
-306 309 0
-307 309 0
-306 -307 310 0
-309 0
109 110 111 112 0
-109 311 0
-110 311 0
-109 -110 312 0
-111 313 0
-112 313 0
-111 -112 314 0
-311 315 0
-313 315 0
-311 -313 316 0
-312 317 0
-314 317 0
-312 -314 318 0
-316 319 0
-317 319 0
-316 -317 320 0
-319 0
17 18 19 20 0
-17 321 0
-18 321 0
-17 -18 322 0
-19 323 0
-20 323 0
-19 -20 324 0
-321 325 0
-323 325 0
-321 -323 326 0
-322 327 0
-324 327 0
-322 -324 328 0
-326 329 0
-327 329 0
-326 -327 330 0
-329 0
41 42 43 44 0
-41 331 0
-42 331 0
-41 -42 332 0
-43 333 0
-44 333 0
-43 -44 334 0
-331 335 0
-333 335 0
-331 -333 336 0
-332 337 0
-334 337 0
-332 -334 338 0
-336 339 0
-337 339 0
-336 -337 340 0
-339 0
65 66 67 68 0
-65 341 0
-66 341 0
-65 -66 342 0
-67 343 0
-68 343 0
-67 -68 344 0
-341 345 0
-343 345 0
-341 -343 346 0
-342 347 0
-344 347 0
-342 -344 348 0
-346 349 0
-347 349 0
-346 -347 350 0
-349 0
89 90 91 92 0
-89 351 0
-90 351 0
-89 -90 352 0
-91 353 0
-92 353 0
-91 -92 354 0
-351 355 0
-353 355 0
-351 -353 356 0
-352 357 0
-354 357 0
-352 -354 358 0
-356 359 0
-357 359 0
-356 -357 360 0
-359 0
113 114 115 116 0
-113 361 0
-114 361 0
-113 -114 362 0
-115 363 0
-116 363 0
-115 -116 364 0
-361 365 0
-363 365 0
-361 -363 366 0
-362 367 0
-364 367 0
-362 -364 368 0
-366 369 0
-367 369 0
-366 -367 370 0
-369 0
21 22 23 24 0
-21 371 0
-22 371 0
-21 -22 372 0
-23 373 0
-24 373 0
-23 -24 374 0
-371 375 0
-373 375 0
-371 -373 376 0
-372 377 0
-374 377 0
-372 -374 378 0
-376 379 0
-377 379 0
-376 -377 380 0
-379 0
45 46 47 48 0
-45 381 0
-46 381 0
-45 -46 382 0
-47 383 0
-48 383 0
-47 -48 384 0
-381 385 0
-383 385 0
-381 -383 386 0
-382 387 0
-384 387 0
-382 -384 388 0
-386 389 0
-387 389 0
-386 -387 390 0
-389 0
69 70 71 72 0
-69 391 0
-70 391 0
-69 -70 392 0
-71 393 0
-72 393 0
-71 -72 394 0
-391 395 0
-393 395 0
-391 -393 396 0
-392 397 0
-394 397 0
-392 -394 398 0
-396 399 0
-397 399 0
-396 -397 400 0
-399 0
93 94 95 96 0
-93 401 0
-94 401 0
-93 -94 402 0
-95 403 0
-96 403 0
-95 -96 404 0
-401 405 0
-403 405 0
-401 -403 406 0
-402 407 0
-404 407 0
-402 -404 408 0
-406 409 0
-407 409 0
-406 -407 410 0
-409 0
117 118 119 120 0
-117 411 0
-118 411 0
-117 -118 412 0
-119 413 0
-120 413 0
-119 -120 414 0
-411 415 0
-413 415 0
-411 -413 416 0
-412 417 0
-414 417 0
-412 -414 418 0
-416 419 0
-417 419 0
-416 -417 420 0
-419 0
-1 -25 -97 6 0
-1 -26 -97 6 0
-1 -27 -97 6 0
-1 -28 -97 6 0
-1 -25 -98 6 0
-1 -26 -98 6 0
-1 -27 -98 6 0
-1 -28 -98 6 0
-1 -25 -99 6 0
-1 -26 -99 6 0
-1 -27 -99 6 0
-1 -28 -99 6 0
-1 -25 -100 6 0
-1 -26 -100 6 0
-1 -27 -100 6 0
-1 -28 -100 6 0
-2 -25 -97 6 0
-2 -26 -97 6 0
-2 -27 -97 6 0
-2 -28 -97 6 0
-2 -25 -98 6 0
-2 -26 -98 7 0
-2 -27 -98 7 0
-2 -28 -98 7 0
-2 -25 -99 6 0
-2 -26 -99 7 0
-2 -27 -99 7 0
-2 -28 -99 7 0
-2 -25 -100 6 0
-2 -26 -100 7 0
-2 -27 -100 7 0
-2 -28 -100 7 0
-3 -25 -97 6 0
-3 -26 -97 6 0
-3 -27 -97 6 0
-3 -28 -97 6 0
-3 -25 -98 6 0
-3 -26 -98 7 0
-3 -27 -98 7 0
-3 -28 -98 7 0
-3 -25 -99 6 0
-3 -26 -99 7 0
-3 -27 -99 8 0
-3 -28 -99 8 0
-3 -25 -100 6 0
-3 -26 -100 7 0
-3 -27 -100 8 0
-3 -28 -100 8 0
-4 -25 -97 6 0
-4 -26 -97 6 0
-4 -27 -97 6 0
-4 -28 -97 6 0
-4 -25 -98 6 0
-4 -26 -98 7 0
-4 -27 -98 7 0
-4 -28 -98 7 0
-4 -25 -99 6 0
-4 -26 -99 7 0
-4 -27 -99 8 0
-4 -28 -99 8 0
-4 -25 -100 6 0
-4 -26 -100 7 0
-4 -27 -100 8 0
-4 -28 -100 5 0
-25 -1 -49 30 0
-25 -2 -49 30 0
-25 -3 -49 30 0
-25 -4 -49 30 0
-25 -1 -50 30 0
-25 -2 -50 30 0
-25 -3 -50 30 0
-25 -4 -50 30 0
-25 -1 -51 30 0
-25 -2 -51 30 0
-25 -3 -51 30 0
-25 -4 -51 30 0
-25 -1 -52 30 0
-25 -2 -52 30 0
-25 -3 -52 30 0
-25 -4 -52 30 0
-26 -1 -49 30 0
-26 -2 -49 30 0
-26 -3 -49 30 0
-26 -4 -49 30 0
-26 -1 -50 30 0
-26 -2 -50 31 0
-26 -3 -50 31 0
-26 -4 -50 31 0
-26 -1 -51 30 0
-26 -2 -51 31 0
-26 -3 -51 31 0
-26 -4 -51 31 0
-26 -1 -52 30 0
-26 -2 -52 31 0
-26 -3 -52 31 0
-26 -4 -52 31 0
-27 -1 -49 30 0
-27 -2 -49 30 0
-27 -3 -49 30 0
-27 -4 -49 30 0
-27 -1 -50 30 0
-27 -2 -50 31 0
-27 -3 -50 31 0
-27 -4 -50 31 0
-27 -1 -51 30 0
-27 -2 -51 31 0
-27 -3 -51 32 0
-27 -4 -51 32 0
-27 -1 -52 30 0
-27 -2 -52 31 0
-27 -3 -52 32 0
-27 -4 -52 32 0
-28 -1 -49 30 0
-28 -2 -49 30 0
-28 -3 -49 30 0
-28 -4 -49 30 0
-28 -1 -50 30 0
-28 -2 -50 31 0
-28 -3 -50 31 0
-28 -4 -50 31 0
-28 -1 -51 30 0
-28 -2 -51 31 0
-28 -3 -51 32 0
-28 -4 -51 32 0
-28 -1 -52 30 0
-28 -2 -52 31 0
-28 -3 -52 32 0
-28 -4 -52 29 0
-49 -25 -73 54 0
-49 -26 -73 54 0
-49 -27 -73 54 0
-49 -28 -73 54 0
-49 -25 -74 54 0
-49 -26 -74 54 0
-49 -27 -74 54 0
-49 -28 -74 54 0
-49 -25 -75 54 0
-49 -26 -75 54 0
-49 -27 -75 54 0
-49 -28 -75 54 0
-49 -25 -76 54 0
-49 -26 -76 54 0
-49 -27 -76 54 0
-49 -28 -76 54 0
-50 -25 -73 54 0
-50 -26 -73 54 0
-50 -27 -73 54 0
-50 -28 -73 54 0
-50 -25 -74 54 0
-50 -26 -74 55 0
-50 -27 -74 55 0
-50 -28 -74 55 0
-50 -25 -75 54 0
-50 -26 -75 55 0
-50 -27 -75 55 0
-50 -28 -75 55 0
-50 -25 -76 54 0
-50 -26 -76 55 0
-50 -27 -76 55 0
-50 -28 -76 55 0
-51 -25 -73 54 0
-51 -26 -73 54 0
-51 -27 -73 54 0
-51 -28 -73 54 0
-51 -25 -74 54 0
-51 -26 -74 55 0
-51 -27 -74 55 0
-51 -28 -74 55 0
-51 -25 -75 54 0
-51 -26 -75 55 0
-51 -27 -75 56 0
-51 -28 -75 56 0
-51 -25 -76 54 0
-51 -26 -76 55 0
-51 -27 -76 56 0
-51 -28 -76 56 0
-52 -25 -73 54 0
-52 -26 -73 54 0
-52 -27 -73 54 0
-52 -28 -73 54 0
-52 -25 -74 54 0
-52 -26 -74 55 0
-52 -27 -74 55 0
-52 -28 -74 55 0
-52 -25 -75 54 0
-52 -26 -75 55 0
-52 -27 -75 56 0
-52 -28 -75 56 0
-52 -25 -76 54 0
-52 -26 -76 55 0
-52 -27 -76 56 0
-52 -28 -76 53 0
-73 -49 -97 78 0
-73 -50 -97 78 0
-73 -51 -97 78 0
-73 -52 -97 78 0
-73 -49 -98 78 0
-73 -50 -98 78 0
-73 -51 -98 78 0
-73 -52 -98 78 0
-73 -49 -99 78 0
-73 -50 -99 78 0
-73 -51 -99 78 0
-73 -52 -99 78 0
-73 -49 -100 78 0
-73 -50 -100 78 0
-73 -51 -100 78 0
-73 -52 -100 78 0
-74 -49 -97 78 0
-74 -50 -97 78 0
-74 -51 -97 78 0
-74 -52 -97 78 0
-74 -49 -98 78 0
-74 -50 -98 79 0
-74 -51 -98 79 0
-74 -52 -98 79 0
-74 -49 -99 78 0
-74 -50 -99 79 0
-74 -51 -99 79 0
-74 -52 -99 79 0
-74 -49 -100 78 0
-74 -50 -100 79 0
-74 -51 -100 79 0
-74 -52 -100 79 0
-75 -49 -97 78 0
-75 -50 -97 78 0
-75 -51 -97 78 0
-75 -52 -97 78 0
-75 -49 -98 78 0
-75 -50 -98 79 0
-75 -51 -98 79 0
-75 -52 -98 79 0
-75 -49 -99 78 0
-75 -50 -99 79 0
-75 -51 -99 80 0
-75 -52 -99 80 0
-75 -49 -100 78 0
-75 -50 -100 79 0
-75 -51 -100 80 0
-75 -52 -100 80 0
-76 -49 -97 78 0
-76 -50 -97 78 0
-76 -51 -97 78 0
-76 -52 -97 78 0
-76 -49 -98 78 0
-76 -50 -98 79 0
-76 -51 -98 79 0
-76 -52 -98 79 0
-76 -49 -99 78 0
-76 -50 -99 79 0
-76 -51 -99 80 0
-76 -52 -99 80 0
-76 -49 -100 78 0
-76 -50 -100 79 0
-76 -51 -100 80 0
-76 -52 -100 77 0
-97 -1 -73 102 0
-97 -2 -73 102 0
-97 -3 -73 102 0
-97 -4 -73 102 0
-97 -1 -74 102 0
-97 -2 -74 102 0
-97 -3 -74 102 0
-97 -4 -74 102 0
-97 -1 -75 102 0
-97 -2 -75 102 0
-97 -3 -75 102 0
-97 -4 -75 102 0
-97 -1 -76 102 0
-97 -2 -76 102 0
-97 -3 -76 102 0
-97 -4 -76 102 0
-98 -1 -73 102 0
-98 -2 -73 102 0
-98 -3 -73 102 0
-98 -4 -73 102 0
-98 -1 -74 102 0
-98 -2 -74 103 0
-98 -3 -74 103 0
-98 -4 -74 103 0
-98 -1 -75 102 0
-98 -2 -75 103 0
-98 -3 -75 103 0
-98 -4 -75 103 0
-98 -1 -76 102 0
-98 -2 -76 103 0
-98 -3 -76 103 0
-98 -4 -76 103 0
-99 -1 -73 102 0
-99 -2 -73 102 0
-99 -3 -73 102 0
-99 -4 -73 102 0
-99 -1 -74 102 0
-99 -2 -74 103 0
-99 -3 -74 103 0
-99 -4 -74 103 0
-99 -1 -75 102 0
-99 -2 -75 103 0
-99 -3 -75 104 0
-99 -4 -75 104 0
-99 -1 -76 102 0
-99 -2 -76 103 0
-99 -3 -76 104 0
-99 -4 -76 104 0
-100 -1 -73 102 0
-100 -2 -73 102 0
-100 -3 -73 102 0
-100 -4 -73 102 0
-100 -1 -74 102 0
-100 -2 -74 103 0
-100 -3 -74 103 0
-100 -4 -74 103 0
-100 -1 -75 102 0
-100 -2 -75 103 0
-100 -3 -75 104 0
-100 -4 -75 104 0
-100 -1 -76 102 0
-100 -2 -76 103 0
-100 -3 -76 104 0
-100 -4 -76 101 0
-5 -29 -101 10 0
-5 -30 -101 10 0
-5 -31 -101 10 0
-5 -32 -101 10 0
-5 -29 -102 10 0
-5 -30 -102 10 0
-5 -31 -102 10 0
-5 -32 -102 10 0
-5 -29 -103 10 0
-5 -30 -103 10 0
-5 -31 -103 10 0
-5 -32 -103 10 0
-5 -29 -104 10 0
-5 -30 -104 10 0
-5 -31 -104 10 0
-5 -32 -104 10 0
-6 -29 -101 10 0
-6 -30 -101 10 0
-6 -31 -101 10 0
-6 -32 -101 10 0
-6 -29 -102 10 0
-6 -30 -102 11 0
-6 -31 -102 11 0
-6 -32 -102 11 0
-6 -29 -103 10 0
-6 -30 -103 11 0
-6 -31 -103 11 0
-6 -32 -103 11 0
-6 -29 -104 10 0
-6 -30 -104 11 0
-6 -31 -104 11 0
-6 -32 -104 11 0
-7 -29 -101 10 0
-7 -30 -101 10 0
-7 -31 -101 10 0
-7 -32 -101 10 0
-7 -29 -102 10 0
-7 -30 -102 11 0
-7 -31 -102 11 0
-7 -32 -102 11 0
-7 -29 -103 10 0
-7 -30 -103 11 0
-7 -31 -103 12 0
-7 -32 -103 12 0
-7 -29 -104 10 0
-7 -30 -104 11 0
-7 -31 -104 12 0
-7 -32 -104 12 0
-8 -29 -101 10 0
-8 -30 -101 10 0
-8 -31 -101 10 0
-8 -32 -101 10 0
-8 -29 -102 10 0
-8 -30 -102 11 0
-8 -31 -102 11 0
-8 -32 -102 11 0
-8 -29 -103 10 0
-8 -30 -103 11 0
-8 -31 -103 12 0
-8 -32 -103 12 0
-8 -29 -104 10 0
-8 -30 -104 11 0
-8 -31 -104 12 0
-8 -32 -104 9 0
-29 -5 -53 34 0
-29 -6 -53 34 0
-29 -7 -53 34 0
-29 -8 -53 34 0
-29 -5 -54 34 0
-29 -6 -54 34 0
-29 -7 -54 34 0
-29 -8 -54 34 0
-29 -5 -55 34 0
-29 -6 -55 34 0
-29 -7 -55 34 0
-29 -8 -55 34 0
-29 -5 -56 34 0
-29 -6 -56 34 0
-29 -7 -56 34 0
-29 -8 -56 34 0
-30 -5 -53 34 0
-30 -6 -53 34 0
-30 -7 -53 34 0
-30 -8 -53 34 0
-30 -5 -54 34 0
-30 -6 -54 35 0
-30 -7 -54 35 0
-30 -8 -54 35 0
-30 -5 -55 34 0
-30 -6 -55 35 0
-30 -7 -55 35 0
-30 -8 -55 35 0
-30 -5 -56 34 0
-30 -6 -56 35 0
-30 -7 -56 35 0
-30 -8 -56 35 0
-31 -5 -53 34 0
-31 -6 -53 34 0
-31 -7 -53 34 0
-31 -8 -53 34 0
-31 -5 -54 34 0
-31 -6 -54 35 0
-31 -7 -54 35 0
-31 -8 -54 35 0
-31 -5 -55 34 0
-31 -6 -55 35 0
-31 -7 -55 36 0
-31 -8 -55 36 0
-31 -5 -56 34 0
-31 -6 -56 35 0
-31 -7 -56 36 0
-31 -8 -56 36 0
-32 -5 -53 34 0
-32 -6 -53 34 0
-32 -7 -53 34 0
-32 -8 -53 34 0
-32 -5 -54 34 0
-32 -6 -54 35 0
-32 -7 -54 35 0
-32 -8 -54 35 0
-32 -5 -55 34 0
-32 -6 -55 35 0
-32 -7 -55 36 0
-32 -8 -55 36 0
-32 -5 -56 34 0
-32 -6 -56 35 0
-32 -7 -56 36 0
-32 -8 -56 33 0
-53 -29 -77 58 0
-53 -30 -77 58 0
-53 -31 -77 58 0
-53 -32 -77 58 0
-53 -29 -78 58 0
-53 -30 -78 58 0
-53 -31 -78 58 0
-53 -32 -78 58 0
-53 -29 -79 58 0
-53 -30 -79 58 0
-53 -31 -79 58 0
-53 -32 -79 58 0
-53 -29 -80 58 0
-53 -30 -80 58 0
-53 -31 -80 58 0
-53 -32 -80 58 0
-54 -29 -77 58 0
-54 -30 -77 58 0
-54 -31 -77 58 0
-54 -32 -77 58 0
-54 -29 -78 58 0
-54 -30 -78 59 0
-54 -31 -78 59 0
-54 -32 -78 59 0
-54 -29 -79 58 0
-54 -30 -79 59 0
-54 -31 -79 59 0
-54 -32 -79 59 0
-54 -29 -80 58 0
-54 -30 -80 59 0
-54 -31 -80 59 0
-54 -32 -80 59 0
-55 -29 -77 58 0
-55 -30 -77 58 0
-55 -31 -77 58 0
-55 -32 -77 58 0
-55 -29 -78 58 0
-55 -30 -78 59 0
-55 -31 -78 59 0
-55 -32 -78 59 0
-55 -29 -79 58 0
-55 -30 -79 59 0
-55 -31 -79 60 0
-55 -32 -79 60 0
-55 -29 -80 58 0
-55 -30 -80 59 0
-55 -31 -80 60 0
-55 -32 -80 60 0
-56 -29 -77 58 0
-56 -30 -77 58 0
-56 -31 -77 58 0
-56 -32 -77 58 0
-56 -29 -78 58 0
-56 -30 -78 59 0
-56 -31 -78 59 0
-56 -32 -78 59 0
-56 -29 -79 58 0
-56 -30 -79 59 0
-56 -31 -79 60 0
-56 -32 -79 60 0
-56 -29 -80 58 0
-56 -30 -80 59 0
-56 -31 -80 60 0
-56 -32 -80 57 0
-77 -53 -101 82 0
-77 -54 -101 82 0
-77 -55 -101 82 0
-77 -56 -101 82 0
-77 -53 -102 82 0
-77 -54 -102 82 0
-77 -55 -102 82 0
-77 -56 -102 82 0
-77 -53 -103 82 0
-77 -54 -103 82 0
-77 -55 -103 82 0
-77 -56 -103 82 0
-77 -53 -104 82 0
-77 -54 -104 82 0
-77 -55 -104 82 0
-77 -56 -104 82 0
-78 -53 -101 82 0
-78 -54 -101 82 0
-78 -55 -101 82 0
-78 -56 -101 82 0
-78 -53 -102 82 0
-78 -54 -102 83 0
-78 -55 -102 83 0
-78 -56 -102 83 0
-78 -53 -103 82 0
-78 -54 -103 83 0
-78 -55 -103 83 0
-78 -56 -103 83 0
-78 -53 -104 82 0
-78 -54 -104 83 0
-78 -55 -104 83 0
-78 -56 -104 83 0
-79 -53 -101 82 0
-79 -54 -101 82 0
-79 -55 -101 82 0
-79 -56 -101 82 0
-79 -53 -102 82 0
-79 -54 -102 83 0
-79 -55 -102 83 0
-79 -56 -102 83 0
-79 -53 -103 82 0
-79 -54 -103 83 0
-79 -55 -103 84 0
-79 -56 -103 84 0
-79 -53 -104 82 0
-79 -54 -104 83 0
-79 -55 -104 84 0
-79 -56 -104 84 0
-80 -53 -101 82 0
-80 -54 -101 82 0
-80 -55 -101 82 0
-80 -56 -101 82 0
-80 -53 -102 82 0
-80 -54 -102 83 0
-80 -55 -102 83 0
-80 -56 -102 83 0
-80 -53 -103 82 0
-80 -54 -103 83 0
-80 -55 -103 84 0
-80 -56 -103 84 0
-80 -53 -104 82 0
-80 -54 -104 83 0
-80 -55 -104 84 0
-80 -56 -104 81 0
-101 -5 -77 106 0
-101 -6 -77 106 0
-101 -7 -77 106 0
-101 -8 -77 106 0
-101 -5 -78 106 0
-101 -6 -78 106 0
-101 -7 -78 106 0
-101 -8 -78 106 0
-101 -5 -79 106 0
-101 -6 -79 106 0
-101 -7 -79 106 0
-101 -8 -79 106 0
-101 -5 -80 106 0
-101 -6 -80 106 0
-101 -7 -80 106 0
-101 -8 -80 106 0
-102 -5 -77 106 0
-102 -6 -77 106 0
-102 -7 -77 106 0
-102 -8 -77 106 0
-102 -5 -78 106 0
-102 -6 -78 107 0
-102 -7 -78 107 0
-102 -8 -78 107 0
-102 -5 -79 106 0
-102 -6 -79 107 0
-102 -7 -79 107 0
-102 -8 -79 107 0
-102 -5 -80 106 0
-102 -6 -80 107 0
-102 -7 -80 107 0
-102 -8 -80 107 0
-103 -5 -77 106 0
-103 -6 -77 106 0
-103 -7 -77 106 0
-103 -8 -77 106 0
-103 -5 -78 106 0
-103 -6 -78 107 0
-103 -7 -78 107 0
-103 -8 -78 107 0
-103 -5 -79 106 0
-103 -6 -79 107 0
-103 -7 -79 108 0
-103 -8 -79 108 0
-103 -5 -80 106 0
-103 -6 -80 107 0
-103 -7 -80 108 0
-103 -8 -80 108 0
-104 -5 -77 106 0
-104 -6 -77 106 0
-104 -7 -77 106 0
-104 -8 -77 106 0
-104 -5 -78 106 0
-104 -6 -78 107 0
-104 -7 -78 107 0
-104 -8 -78 107 0
-104 -5 -79 106 0
-104 -6 -79 107 0
-104 -7 -79 108 0
-104 -8 -79 108 0
-104 -5 -80 106 0
-104 -6 -80 107 0
-104 -7 -80 108 0
-104 -8 -80 105 0
-9 -33 -105 14 0
-9 -34 -105 14 0
-9 -35 -105 14 0
-9 -36 -105 14 0
-9 -33 -106 14 0
-9 -34 -106 14 0
-9 -35 -106 14 0
-9 -36 -106 14 0
-9 -33 -107 14 0
-9 -34 -107 14 0
-9 -35 -107 14 0
-9 -36 -107 14 0
-9 -33 -108 14 0
-9 -34 -108 14 0
-9 -35 -108 14 0
-9 -36 -108 14 0
-10 -33 -105 14 0
-10 -34 -105 14 0
-10 -35 -105 14 0
-10 -36 -105 14 0
-10 -33 -106 14 0
-10 -34 -106 15 0
-10 -35 -106 15 0
-10 -36 -106 15 0
-10 -33 -107 14 0
-10 -34 -107 15 0
-10 -35 -107 15 0
-10 -36 -107 15 0
-10 -33 -108 14 0
-10 -34 -108 15 0
-10 -35 -108 15 0
-10 -36 -108 15 0
-11 -33 -105 14 0
-11 -34 -105 14 0
-11 -35 -105 14 0
-11 -36 -105 14 0
-11 -33 -106 14 0
-11 -34 -106 15 0
-11 -35 -106 15 0
-11 -36 -106 15 0
-11 -33 -107 14 0
-11 -34 -107 15 0
-11 -35 -107 16 0
-11 -36 -107 16 0
-11 -33 -108 14 0
-11 -34 -108 15 0
-11 -35 -108 16 0
-11 -36 -108 16 0
-12 -33 -105 14 0
-12 -34 -105 14 0
-12 -35 -105 14 0
-12 -36 -105 14 0
-12 -33 -106 14 0
-12 -34 -106 15 0
-12 -35 -106 15 0
-12 -36 -106 15 0
-12 -33 -107 14 0
-12 -34 -107 15 0
-12 -35 -107 16 0
-12 -36 -107 16 0
-12 -33 -108 14 0
-12 -34 -108 15 0
-12 -35 -108 16 0
-12 -36 -108 13 0
-33 -9 -57 38 0
-33 -10 -57 38 0
-33 -11 -57 38 0
-33 -12 -57 38 0
-33 -9 -58 38 0
-33 -10 -58 38 0
-33 -11 -58 38 0
-33 -12 -58 38 0
-33 -9 -59 38 0
-33 -10 -59 38 0
-33 -11 -59 38 0
-33 -12 -59 38 0
-33 -9 -60 38 0
-33 -10 -60 38 0
-33 -11 -60 38 0
-33 -12 -60 38 0
-34 -9 -57 38 0
-34 -10 -57 38 0
-34 -11 -57 38 0
-34 -12 -57 38 0
-34 -9 -58 38 0
-34 -10 -58 39 0
-34 -11 -58 39 0
-34 -12 -58 39 0
-34 -9 -59 38 0
-34 -10 -59 39 0
-34 -11 -59 39 0
-34 -12 -59 39 0
-34 -9 -60 38 0
-34 -10 -60 39 0
-34 -11 -60 39 0
-34 -12 -60 39 0
-35 -9 -57 38 0
-35 -10 -57 38 0
-35 -11 -57 38 0
-35 -12 -57 38 0
-35 -9 -58 38 0
-35 -10 -58 39 0
-35 -11 -58 39 0
-35 -12 -58 39 0
-35 -9 -59 38 0
-35 -10 -59 39 0
-35 -11 -59 40 0
-35 -12 -59 40 0
-35 -9 -60 38 0
-35 -10 -60 39 0
-35 -11 -60 40 0
-35 -12 -60 40 0
-36 -9 -57 38 0
-36 -10 -57 38 0
-36 -11 -57 38 0
-36 -12 -57 38 0
-36 -9 -58 38 0
-36 -10 -58 39 0
-36 -11 -58 39 0
-36 -12 -58 39 0
-36 -9 -59 38 0
-36 -10 -59 39 0
-36 -11 -59 40 0
-36 -12 -59 40 0
-36 -9 -60 38 0
-36 -10 -60 39 0
-36 -11 -60 40 0
-36 -12 -60 37 0
-57 -33 -81 62 0
-57 -34 -81 62 0
-57 -35 -81 62 0
-57 -36 -81 62 0
-57 -33 -82 62 0
-57 -34 -82 62 0
-57 -35 -82 62 0
-57 -36 -82 62 0
-57 -33 -83 62 0
-57 -34 -83 62 0
-57 -35 -83 62 0
-57 -36 -83 62 0
-57 -33 -84 62 0
-57 -34 -84 62 0
-57 -35 -84 62 0
-57 -36 -84 62 0
-58 -33 -81 62 0
-58 -34 -81 62 0
-58 -35 -81 62 0
-58 -36 -81 62 0
-58 -33 -82 62 0
-58 -34 -82 63 0
-58 -35 -82 63 0
-58 -36 -82 63 0
-58 -33 -83 62 0
-58 -34 -83 63 0
-58 -35 -83 63 0
-58 -36 -83 63 0
-58 -33 -84 62 0
-58 -34 -84 63 0
-58 -35 -84 63 0
-58 -36 -84 63 0
-59 -33 -81 62 0
-59 -34 -81 62 0
-59 -35 -81 62 0
-59 -36 -81 62 0
-59 -33 -82 62 0
-59 -34 -82 63 0
-59 -35 -82 63 0
-59 -36 -82 63 0
-59 -33 -83 62 0
-59 -34 -83 63 0
-59 -35 -83 64 0
-59 -36 -83 64 0
-59 -33 -84 62 0
-59 -34 -84 63 0
-59 -35 -84 64 0
-59 -36 -84 64 0
-60 -33 -81 62 0
-60 -34 -81 62 0
-60 -35 -81 62 0
-60 -36 -81 62 0
-60 -33 -82 62 0
-60 -34 -82 63 0
-60 -35 -82 63 0
-60 -36 -82 63 0
-60 -33 -83 62 0
-60 -34 -83 63 0
-60 -35 -83 64 0
-60 -36 -83 64 0
-60 -33 -84 62 0
-60 -34 -84 63 0
-60 -35 -84 64 0
-60 -36 -84 61 0
-81 -57 -105 86 0
-81 -58 -105 86 0
-81 -59 -105 86 0
-81 -60 -105 86 0
-81 -57 -106 86 0
-81 -58 -106 86 0
-81 -59 -106 86 0
-81 -60 -106 86 0
-81 -57 -107 86 0
-81 -58 -107 86 0
-81 -59 -107 86 0
-81 -60 -107 86 0
-81 -57 -108 86 0
-81 -58 -108 86 0
-81 -59 -108 86 0
-81 -60 -108 86 0
-82 -57 -105 86 0
-82 -58 -105 86 0
-82 -59 -105 86 0
-82 -60 -105 86 0
-82 -57 -106 86 0
-82 -58 -106 87 0
-82 -59 -106 87 0
-82 -60 -106 87 0
-82 -57 -107 86 0
-82 -58 -107 87 0
-82 -59 -107 87 0
-82 -60 -107 87 0
-82 -57 -108 86 0
-82 -58 -108 87 0
-82 -59 -108 87 0
-82 -60 -108 87 0
-83 -57 -105 86 0
-83 -58 -105 86 0
-83 -59 -105 86 0
-83 -60 -105 86 0
-83 -57 -106 86 0
-83 -58 -106 87 0
-83 -59 -106 87 0
-83 -60 -106 87 0
-83 -57 -107 86 0
-83 -58 -107 87 0
-83 -59 -107 88 0
-83 -60 -107 88 0
-83 -57 -108 86 0
-83 -58 -108 87 0
-83 -59 -108 88 0
-83 -60 -108 88 0
-84 -57 -105 86 0
-84 -58 -105 86 0
-84 -59 -105 86 0
-84 -60 -105 86 0
-84 -57 -106 86 0
-84 -58 -106 87 0
-84 -59 -106 87 0
-84 -60 -106 87 0
-84 -57 -107 86 0
-84 -58 -107 87 0
-84 -59 -107 88 0
-84 -60 -107 88 0
-84 -57 -108 86 0
-84 -58 -108 87 0
-84 -59 -108 88 0
-84 -60 -108 85 0
-105 -9 -81 110 0
-105 -10 -81 110 0
-105 -11 -81 110 0
-105 -12 -81 110 0
-105 -9 -82 110 0
-105 -10 -82 110 0
-105 -11 -82 110 0
-105 -12 -82 110 0
-105 -9 -83 110 0
-105 -10 -83 110 0
-105 -11 -83 110 0
-105 -12 -83 110 0
-105 -9 -84 110 0
-105 -10 -84 110 0
-105 -11 -84 110 0
-105 -12 -84 110 0
-106 -9 -81 110 0
-106 -10 -81 110 0
-106 -11 -81 110 0
-106 -12 -81 110 0
-106 -9 -82 110 0
-106 -10 -82 111 0
-106 -11 -82 111 0
-106 -12 -82 111 0
-106 -9 -83 110 0
-106 -10 -83 111 0
-106 -11 -83 111 0
-106 -12 -83 111 0
-106 -9 -84 110 0
-106 -10 -84 111 0
-106 -11 -84 111 0
-106 -12 -84 111 0
-107 -9 -81 110 0
-107 -10 -81 110 0
-107 -11 -81 110 0
-107 -12 -81 110 0
-107 -9 -82 110 0
-107 -10 -82 111 0
-107 -11 -82 111 0
-107 -12 -82 111 0
-107 -9 -83 110 0
-107 -10 -83 111 0
-107 -11 -83 112 0
-107 -12 -83 112 0
-107 -9 -84 110 0
-107 -10 -84 111 0
-107 -11 -84 112 0
-107 -12 -84 112 0
-108 -9 -81 110 0
-108 -10 -81 110 0
-108 -11 -81 110 0
-108 -12 -81 110 0
-108 -9 -82 110 0
-108 -10 -82 111 0
-108 -11 -82 111 0
-108 -12 -82 111 0
-108 -9 -83 110 0
-108 -10 -83 111 0
-108 -11 -83 112 0
-108 -12 -83 112 0
-108 -9 -84 110 0
-108 -10 -84 111 0
-108 -11 -84 112 0
-108 -12 -84 109 0
-13 -37 -109 18 0
-13 -38 -109 18 0
-13 -39 -109 18 0
-13 -40 -109 18 0
-13 -37 -110 18 0
-13 -38 -110 18 0
-13 -39 -110 18 0
-13 -40 -110 18 0
-13 -37 -111 18 0
-13 -38 -111 18 0
-13 -39 -111 18 0
-13 -40 -111 18 0
-13 -37 -112 18 0
-13 -38 -112 18 0
-13 -39 -112 18 0
-13 -40 -112 18 0
-14 -37 -109 18 0
-14 -38 -109 18 0
-14 -39 -109 18 0
-14 -40 -109 18 0
-14 -37 -110 18 0
-14 -38 -110 19 0
-14 -39 -110 19 0
-14 -40 -110 19 0
-14 -37 -111 18 0
-14 -38 -111 19 0
-14 -39 -111 19 0
-14 -40 -111 19 0
-14 -37 -112 18 0
-14 -38 -112 19 0
-14 -39 -112 19 0
-14 -40 -112 19 0
-15 -37 -109 18 0
-15 -38 -109 18 0
-15 -39 -109 18 0
-15 -40 -109 18 0
-15 -37 -110 18 0
-15 -38 -110 19 0
-15 -39 -110 19 0
-15 -40 -110 19 0
-15 -37 -111 18 0
-15 -38 -111 19 0
-15 -39 -111 20 0
-15 -40 -111 20 0
-15 -37 -112 18 0
-15 -38 -112 19 0
-15 -39 -112 20 0
-15 -40 -112 20 0
-16 -37 -109 18 0
-16 -38 -109 18 0
-16 -39 -109 18 0
-16 -40 -109 18 0
-16 -37 -110 18 0
-16 -38 -110 19 0
-16 -39 -110 19 0
-16 -40 -110 19 0
-16 -37 -111 18 0
-16 -38 -111 19 0
-16 -39 -111 20 0
-16 -40 -111 20 0
-16 -37 -112 18 0
-16 -38 -112 19 0
-16 -39 -112 20 0
-16 -40 -112 17 0
-37 -13 -61 42 0
-37 -14 -61 42 0
-37 -15 -61 42 0
-37 -16 -61 42 0
-37 -13 -62 42 0
-37 -14 -62 42 0
-37 -15 -62 42 0
-37 -16 -62 42 0
-37 -13 -63 42 0
-37 -14 -63 42 0
-37 -15 -63 42 0
-37 -16 -63 42 0
-37 -13 -64 42 0
-37 -14 -64 42 0
-37 -15 -64 42 0
-37 -16 -64 42 0
-38 -13 -61 42 0
-38 -14 -61 42 0
-38 -15 -61 42 0
-38 -16 -61 42 0
-38 -13 -62 42 0
-38 -14 -62 43 0
-38 -15 -62 43 0
-38 -16 -62 43 0
-38 -13 -63 42 0
-38 -14 -63 43 0
-38 -15 -63 43 0
-38 -16 -63 43 0
-38 -13 -64 42 0
-38 -14 -64 43 0
-38 -15 -64 43 0
-38 -16 -64 43 0
-39 -13 -61 42 0
-39 -14 -61 42 0
-39 -15 -61 42 0
-39 -16 -61 42 0
-39 -13 -62 42 0
-39 -14 -62 43 0
-39 -15 -62 43 0
-39 -16 -62 43 0
-39 -13 -63 42 0
-39 -14 -63 43 0
-39 -15 -63 44 0
-39 -16 -63 44 0
-39 -13 -64 42 0
-39 -14 -64 43 0
-39 -15 -64 44 0
-39 -16 -64 44 0
-40 -13 -61 42 0
-40 -14 -61 42 0
-40 -15 -61 42 0
-40 -16 -61 42 0
-40 -13 -62 42 0
-40 -14 -62 43 0
-40 -15 -62 43 0
-40 -16 -62 43 0
-40 -13 -63 42 0
-40 -14 -63 43 0
-40 -15 -63 44 0
-40 -16 -63 44 0
-40 -13 -64 42 0
-40 -14 -64 43 0
-40 -15 -64 44 0
-40 -16 -64 41 0
-61 -37 -85 66 0
-61 -38 -85 66 0
-61 -39 -85 66 0
-61 -40 -85 66 0
-61 -37 -86 66 0
-61 -38 -86 66 0
-61 -39 -86 66 0
-61 -40 -86 66 0
-61 -37 -87 66 0
-61 -38 -87 66 0
-61 -39 -87 66 0
-61 -40 -87 66 0
-61 -37 -88 66 0
-61 -38 -88 66 0
-61 -39 -88 66 0
-61 -40 -88 66 0
-62 -37 -85 66 0
-62 -38 -85 66 0
-62 -39 -85 66 0
-62 -40 -85 66 0
-62 -37 -86 66 0
-62 -38 -86 67 0
-62 -39 -86 67 0
-62 -40 -86 67 0
-62 -37 -87 66 0
-62 -38 -87 67 0
-62 -39 -87 67 0
-62 -40 -87 67 0
-62 -37 -88 66 0
-62 -38 -88 67 0
-62 -39 -88 67 0
-62 -40 -88 67 0
-63 -37 -85 66 0
-63 -38 -85 66 0
-63 -39 -85 66 0
-63 -40 -85 66 0
-63 -37 -86 66 0
-63 -38 -86 67 0
-63 -39 -86 67 0
-63 -40 -86 67 0
-63 -37 -87 66 0
-63 -38 -87 67 0
-63 -39 -87 68 0
-63 -40 -87 68 0
-63 -37 -88 66 0
-63 -38 -88 67 0
-63 -39 -88 68 0
-63 -40 -88 68 0
-64 -37 -85 66 0
-64 -38 -85 66 0
-64 -39 -85 66 0
-64 -40 -85 66 0
-64 -37 -86 66 0
-64 -38 -86 67 0
-64 -39 -86 67 0
-64 -40 -86 67 0
-64 -37 -87 66 0
-64 -38 -87 67 0
-64 -39 -87 68 0
-64 -40 -87 68 0
-64 -37 -88 66 0
-64 -38 -88 67 0
-64 -39 -88 68 0
-64 -40 -88 65 0
-85 -61 -109 90 0
-85 -62 -109 90 0
-85 -63 -109 90 0
-85 -64 -109 90 0
-85 -61 -110 90 0
-85 -62 -110 90 0
-85 -63 -110 90 0
-85 -64 -110 90 0
-85 -61 -111 90 0
-85 -62 -111 90 0
-85 -63 -111 90 0
-85 -64 -111 90 0
-85 -61 -112 90 0
-85 -62 -112 90 0
-85 -63 -112 90 0
-85 -64 -112 90 0
-86 -61 -109 90 0
-86 -62 -109 90 0
-86 -63 -109 90 0
-86 -64 -109 90 0
-86 -61 -110 90 0
-86 -62 -110 91 0
-86 -63 -110 91 0
-86 -64 -110 91 0
-86 -61 -111 90 0
-86 -62 -111 91 0
-86 -63 -111 91 0
-86 -64 -111 91 0
-86 -61 -112 90 0
-86 -62 -112 91 0
-86 -63 -112 91 0
-86 -64 -112 91 0
-87 -61 -109 90 0
-87 -62 -109 90 0
-87 -63 -109 90 0
-87 -64 -109 90 0
-87 -61 -110 90 0
-87 -62 -110 91 0
-87 -63 -110 91 0
-87 -64 -110 91 0
-87 -61 -111 90 0
-87 -62 -111 91 0
-87 -63 -111 92 0
-87 -64 -111 92 0
-87 -61 -112 90 0
-87 -62 -112 91 0
-87 -63 -112 92 0
-87 -64 -112 92 0
-88 -61 -109 90 0
-88 -62 -109 90 0
-88 -63 -109 90 0
-88 -64 -109 90 0
-88 -61 -110 90 0
-88 -62 -110 91 0
-88 -63 -110 91 0
-88 -64 -110 91 0
-88 -61 -111 90 0
-88 -62 -111 91 0
-88 -63 -111 92 0
-88 -64 -111 92 0
-88 -61 -112 90 0
-88 -62 -112 91 0
-88 -63 -112 92 0
-88 -64 -112 89 0
-109 -13 -85 114 0
-109 -14 -85 114 0
-109 -15 -85 114 0
-109 -16 -85 114 0
-109 -13 -86 114 0
-109 -14 -86 114 0
-109 -15 -86 114 0
-109 -16 -86 114 0
-109 -13 -87 114 0
-109 -14 -87 114 0
-109 -15 -87 114 0
-109 -16 -87 114 0
-109 -13 -88 114 0
-109 -14 -88 114 0
-109 -15 -88 114 0
-109 -16 -88 114 0
-110 -13 -85 114 0
-110 -14 -85 114 0
-110 -15 -85 114 0
-110 -16 -85 114 0
-110 -13 -86 114 0
-110 -14 -86 115 0
-110 -15 -86 115 0
-110 -16 -86 115 0
-110 -13 -87 114 0
-110 -14 -87 115 0
-110 -15 -87 115 0
-110 -16 -87 115 0
-110 -13 -88 114 0
-110 -14 -88 115 0
-110 -15 -88 115 0
-110 -16 -88 115 0
-111 -13 -85 114 0
-111 -14 -85 114 0
-111 -15 -85 114 0
-111 -16 -85 114 0
-111 -13 -86 114 0
-111 -14 -86 115 0
-111 -15 -86 115 0
-111 -16 -86 115 0
-111 -13 -87 114 0
-111 -14 -87 115 0
-111 -15 -87 116 0
-111 -16 -87 116 0
-111 -13 -88 114 0
-111 -14 -88 115 0
-111 -15 -88 116 0
-111 -16 -88 116 0
-112 -13 -85 114 0
-112 -14 -85 114 0
-112 -15 -85 114 0
-112 -16 -85 114 0
-112 -13 -86 114 0
-112 -14 -86 115 0
-112 -15 -86 115 0
-112 -16 -86 115 0
-112 -13 -87 114 0
-112 -14 -87 115 0
-112 -15 -87 116 0
-112 -16 -87 116 0
-112 -13 -88 114 0
-112 -14 -88 115 0
-112 -15 -88 116 0
-112 -16 -88 113 0
-17 -41 -113 22 0
-17 -42 -113 22 0
-17 -43 -113 22 0
-17 -44 -113 22 0
-17 -41 -114 22 0
-17 -42 -114 22 0
-17 -43 -114 22 0
-17 -44 -114 22 0
-17 -41 -115 22 0
-17 -42 -115 22 0
-17 -43 -115 22 0
-17 -44 -115 22 0
-17 -41 -116 22 0
-17 -42 -116 22 0
-17 -43 -116 22 0
-17 -44 -116 22 0
-18 -41 -113 22 0
-18 -42 -113 22 0
-18 -43 -113 22 0
-18 -44 -113 22 0
-18 -41 -114 22 0
-18 -42 -114 23 0
-18 -43 -114 23 0
-18 -44 -114 23 0
-18 -41 -115 22 0
-18 -42 -115 23 0
-18 -43 -115 23 0
-18 -44 -115 23 0
-18 -41 -116 22 0
-18 -42 -116 23 0
-18 -43 -116 23 0
-18 -44 -116 23 0
-19 -41 -113 22 0
-19 -42 -113 22 0
-19 -43 -113 22 0
-19 -44 -113 22 0
-19 -41 -114 22 0
-19 -42 -114 23 0
-19 -43 -114 23 0
-19 -44 -114 23 0
-19 -41 -115 22 0
-19 -42 -115 23 0
-19 -43 -115 24 0
-19 -44 -115 24 0
-19 -41 -116 22 0
-19 -42 -116 23 0
-19 -43 -116 24 0
-19 -44 -116 24 0
-20 -41 -113 22 0
-20 -42 -113 22 0
-20 -43 -113 22 0
-20 -44 -113 22 0
-20 -41 -114 22 0
-20 -42 -114 23 0
-20 -43 -114 23 0
-20 -44 -114 23 0
-20 -41 -115 22 0
-20 -42 -115 23 0
-20 -43 -115 24 0
-20 -44 -115 24 0
-20 -41 -116 22 0
-20 -42 -116 23 0
-20 -43 -116 24 0
-20 -44 -116 21 0
-41 -17 -65 46 0
-41 -18 -65 46 0
-41 -19 -65 46 0
-41 -20 -65 46 0
-41 -17 -66 46 0
-41 -18 -66 46 0
-41 -19 -66 46 0
-41 -20 -66 46 0
-41 -17 -67 46 0
-41 -18 -67 46 0
-41 -19 -67 46 0
-41 -20 -67 46 0
-41 -17 -68 46 0
-41 -18 -68 46 0
-41 -19 -68 46 0
-41 -20 -68 46 0
-42 -17 -65 46 0
-42 -18 -65 46 0
-42 -19 -65 46 0
-42 -20 -65 46 0
-42 -17 -66 46 0
-42 -18 -66 47 0
-42 -19 -66 47 0
-42 -20 -66 47 0
-42 -17 -67 46 0
-42 -18 -67 47 0
-42 -19 -67 47 0
-42 -20 -67 47 0
-42 -17 -68 46 0
-42 -18 -68 47 0
-42 -19 -68 47 0
-42 -20 -68 47 0
-43 -17 -65 46 0
-43 -18 -65 46 0
-43 -19 -65 46 0
-43 -20 -65 46 0
-43 -17 -66 46 0
-43 -18 -66 47 0
-43 -19 -66 47 0
-43 -20 -66 47 0
-43 -17 -67 46 0
-43 -18 -67 47 0
-43 -19 -67 48 0
-43 -20 -67 48 0
-43 -17 -68 46 0
-43 -18 -68 47 0
-43 -19 -68 48 0
-43 -20 -68 48 0
-44 -17 -65 46 0
-44 -18 -65 46 0
-44 -19 -65 46 0
-44 -20 -65 46 0
-44 -17 -66 46 0
-44 -18 -66 47 0
-44 -19 -66 47 0
-44 -20 -66 47 0
-44 -17 -67 46 0
-44 -18 -67 47 0
-44 -19 -67 48 0
-44 -20 -67 48 0
-44 -17 -68 46 0
-44 -18 -68 47 0
-44 -19 -68 48 0
-44 -20 -68 45 0
-65 -41 -89 70 0
-65 -42 -89 70 0
-65 -43 -89 70 0
-65 -44 -89 70 0
-65 -41 -90 70 0
-65 -42 -90 70 0
-65 -43 -90 70 0
-65 -44 -90 70 0
-65 -41 -91 70 0
-65 -42 -91 70 0
-65 -43 -91 70 0
-65 -44 -91 70 0
-65 -41 -92 70 0
-65 -42 -92 70 0
-65 -43 -92 70 0
-65 -44 -92 70 0
-66 -41 -89 70 0
-66 -42 -89 70 0
-66 -43 -89 70 0
-66 -44 -89 70 0
-66 -41 -90 70 0
-66 -42 -90 71 0
-66 -43 -90 71 0
-66 -44 -90 71 0
-66 -41 -91 70 0
-66 -42 -91 71 0
-66 -43 -91 71 0
-66 -44 -91 71 0
-66 -41 -92 70 0
-66 -42 -92 71 0
-66 -43 -92 71 0
-66 -44 -92 71 0
-67 -41 -89 70 0
-67 -42 -89 70 0
-67 -43 -89 70 0
-67 -44 -89 70 0
-67 -41 -90 70 0
-67 -42 -90 71 0
-67 -43 -90 71 0
-67 -44 -90 71 0
-67 -41 -91 70 0
-67 -42 -91 71 0
-67 -43 -91 72 0
-67 -44 -91 72 0
-67 -41 -92 70 0
-67 -42 -92 71 0
-67 -43 -92 72 0
-67 -44 -92 72 0
-68 -41 -89 70 0
-68 -42 -89 70 0
-68 -43 -89 70 0
-68 -44 -89 70 0
-68 -41 -90 70 0
-68 -42 -90 71 0
-68 -43 -90 71 0
-68 -44 -90 71 0
-68 -41 -91 70 0
-68 -42 -91 71 0
-68 -43 -91 72 0
-68 -44 -91 72 0
-68 -41 -92 70 0
-68 -42 -92 71 0
-68 -43 -92 72 0
-68 -44 -92 69 0
-89 -65 -113 94 0
-89 -66 -113 94 0
-89 -67 -113 94 0
-89 -68 -113 94 0
-89 -65 -114 94 0
-89 -66 -114 94 0
-89 -67 -114 94 0
-89 -68 -114 94 0
-89 -65 -115 94 0
-89 -66 -115 94 0
-89 -67 -115 94 0
-89 -68 -115 94 0
-89 -65 -116 94 0
-89 -66 -116 94 0
-89 -67 -116 94 0
-89 -68 -116 94 0
-90 -65 -113 94 0
-90 -66 -113 94 0
-90 -67 -113 94 0
-90 -68 -113 94 0
-90 -65 -114 94 0
-90 -66 -114 95 0
-90 -67 -114 95 0
-90 -68 -114 95 0
-90 -65 -115 94 0
-90 -66 -115 95 0
-90 -67 -115 95 0
-90 -68 -115 95 0
-90 -65 -116 94 0
-90 -66 -116 95 0
-90 -67 -116 95 0
-90 -68 -116 95 0
-91 -65 -113 94 0
-91 -66 -113 94 0
-91 -67 -113 94 0
-91 -68 -113 94 0
-91 -65 -114 94 0
-91 -66 -114 95 0
-91 -67 -114 95 0
-91 -68 -114 95 0
-91 -65 -115 94 0
-91 -66 -115 95 0
-91 -67 -115 96 0
-91 -68 -115 96 0
-91 -65 -116 94 0
-91 -66 -116 95 0
-91 -67 -116 96 0
-91 -68 -116 96 0
-92 -65 -113 94 0
-92 -66 -113 94 0
-92 -67 -113 94 0
-92 -68 -113 94 0
-92 -65 -114 94 0
-92 -66 -114 95 0
-92 -67 -114 95 0
-92 -68 -114 95 0
-92 -65 -115 94 0
-92 -66 -115 95 0
-92 -67 -115 96 0
-92 -68 -115 96 0
-92 -65 -116 94 0
-92 -66 -116 95 0
-92 -67 -116 96 0
-92 -68 -116 93 0
-113 -17 -89 118 0
-113 -18 -89 118 0
-113 -19 -89 118 0
-113 -20 -89 118 0
-113 -17 -90 118 0
-113 -18 -90 118 0
-113 -19 -90 118 0
-113 -20 -90 118 0
-113 -17 -91 118 0
-113 -18 -91 118 0
-113 -19 -91 118 0
-113 -20 -91 118 0
-113 -17 -92 118 0
-113 -18 -92 118 0
-113 -19 -92 118 0
-113 -20 -92 118 0
-114 -17 -89 118 0
-114 -18 -89 118 0
-114 -19 -89 118 0
-114 -20 -89 118 0
-114 -17 -90 118 0
-114 -18 -90 119 0
-114 -19 -90 119 0
-114 -20 -90 119 0
-114 -17 -91 118 0
-114 -18 -91 119 0
-114 -19 -91 119 0
-114 -20 -91 119 0
-114 -17 -92 118 0
-114 -18 -92 119 0
-114 -19 -92 119 0
-114 -20 -92 119 0
-115 -17 -89 118 0
-115 -18 -89 118 0
-115 -19 -89 118 0
-115 -20 -89 118 0
-115 -17 -90 118 0
-115 -18 -90 119 0
-115 -19 -90 119 0
-115 -20 -90 119 0
-115 -17 -91 118 0
-115 -18 -91 119 0
-115 -19 -91 120 0
-115 -20 -91 120 0
-115 -17 -92 118 0
-115 -18 -92 119 0
-115 -19 -92 120 0
-115 -20 -92 120 0
-116 -17 -89 118 0
-116 -18 -89 118 0
-116 -19 -89 118 0
-116 -20 -89 118 0
-116 -17 -90 118 0
-116 -18 -90 119 0
-116 -19 -90 119 0
-116 -20 -90 119 0
-116 -17 -91 118 0
-116 -18 -91 119 0
-116 -19 -91 120 0
-116 -20 -91 120 0
-116 -17 -92 118 0
-116 -18 -92 119 0
-116 -19 -92 120 0
-116 -20 -92 117 0
-21 -45 -69 -93 -117 0
-22 -46 -70 -94 -118 0
-23 -47 -71 -95 -119 0
-24 -48 -72 -96 -120 0
-25 -2 0
-49 -2 0
-73 -2 0
-97 -2 0
-25 -3 0
-49 -3 0
-73 -3 0
-97 -3 0
-25 -4 0
-49 -4 0
-73 -4 0
-97 -4 0
-26 -3 0
-50 -3 0
-74 -3 0
-98 -3 0
-26 -4 0
-50 -4 0
-74 -4 0
-98 -4 0
-27 -4 0
-51 -4 0
-75 -4 0
-99 -4 0
